3390.31 0
0 6 1 66 2 3 9 7 8 13 5 4 0
0 22 105 16 18 10 11 14 19 15 12 17 0
0 30 27 29 20 21 28 190 23 116 24 145 25 26 0
0 33 41 49 32 39 31 38 35 34 36 37 59 0
0 42 43 53 40 44 50 52 46 48 47 154 45 0
0 61 54 64 62 55 56 57 51 58 60 0
0 71 69 78 70 123 65 75 72 73 74 63 67 68 0
0 86 89 82 88 79 83 84 85 77 80 92 76 81 87 0
0 96 90 91 93 94 101 98 103 99 102 100 106 135 97 95 0
0 111 108 109 110 118 107 117 112 114 113 115 104 159 0
0 191 125 120 121 122 124 128 130 129 119 134 132 127 126 0
0 139 138 155 140 141 142 137 143 136 144 146 131 133 149 0
0 151 147 148 162 150 168 158 160 156 157 153 152 0
0 169 161 163 165 164 170 177 167 166 173 171 172 0
0 188 187 181 182 183 184 174 179 176 178 180 175 0
0 189 195 198 192 185 199 197 196 186 194 193 0
